p tw 195 219
1 2
2 108
3 14
4 5
5 6
6 7
7 8
8 9
9 10
10 11
11 12
12 13
13 15
14 25
15 16
16 17
17 18
18 19
19 20
20 21
21 22
22 23
23 24
24 26
24 27
25 36
26 27
27 28
28 29
29 30
30 31
31 32
32 33
33 34
34 35
34 37
35 37
35 43
36 47
36 58
37 38
38 39
38 100
39 40
40 41
41 42
42 43
42 100
43 44
44 45
44 60
45 46
46 48
47 58
48 49
49 50
50 51
51 52
52 53
53 54
54 55
55 56
56 57
56 60
57 59
58 69
59 60
60 61
61 62
62 63
62 87
63 64
64 65
65 66
66 67
67 68
68 70
69 80
70 71
71 72
72 73
73 74
74 75
75 76
76 77
77 78
78 79
79 81
79 87
80 91
80 109
81 82
82 83
83 84
84 85
85 86
86 77
87 88
88 89
89 90
89 97
90 92
91 102
92 93
93 94
93 97
94 95
95 96
96 90
97 98
98 99
99 33
100 101
101 103
102 109
102 118
103 104
104 105
105 106
106 107
108 119
108 141
109 110
110 111
111 112
112 113
113 114
114 115
115 116
116 117
117 118
118 120
119 130
120 121
120 124
121 122
122 123
123 124
124 125
125 126
126 127
127 128
128 129
129 131
130 163
131 132
132 133
133 134
133 135
134 135
135 136
136 137
137 138
138 139
138 140
139 140
140 142
141 152
142 143
142 144
143 144
144 145
145 146
145 178
146 147
147 148
148 149
149 150
150 151
151 153
152 163
153 154
154 155
155 156
155 170
156 157
156 166
157 158
158 159
159 160
160 161
161 162
162 164
163 174
164 165
165 166
166 167
167 168
168 169
169 106
170 171
171 172
172 173
173 175
174 185
175 176
176 177
177 186
178 179
179 180
180 181
181 182
182 183
183 184
184 186
185 3
185 14
186 187
187 188
187 4
188 189
188 191
189 190
190 194
191 192
192 193
193 194
194 195
195 4
